Automatically generated mesh
    3276
Reciprocal lattice
    0.00000000000000    0.00000000000000    0.00000000000000             1
    0.02000000000000    0.00000000000000    0.00000000000000             6
    0.04000000000000    0.00000000000000    0.00000000000000             6
    0.06000000000000    0.00000000000000    0.00000000000000             6
    0.08000000000000    0.00000000000000    0.00000000000000             6
    0.10000000000000    0.00000000000000    0.00000000000000             6
    0.12000000000000    0.00000000000000    0.00000000000000             6
    0.14000000000000    0.00000000000000    0.00000000000000             6
    0.16000000000000    0.00000000000000    0.00000000000000             6
    0.18000000000000    0.00000000000000    0.00000000000000             6
    0.20000000000000    0.00000000000000    0.00000000000000             6
    0.22000000000000    0.00000000000000    0.00000000000000             6
    0.24000000000000    0.00000000000000    0.00000000000000             6
    0.26000000000000    0.00000000000000    0.00000000000000             6
    0.28000000000000    0.00000000000000    0.00000000000000             6
    0.30000000000000    0.00000000000000    0.00000000000000             6
    0.32000000000000    0.00000000000000    0.00000000000000             6
    0.34000000000000    0.00000000000000    0.00000000000000             6
    0.36000000000000    0.00000000000000    0.00000000000000             6
    0.38000000000000    0.00000000000000    0.00000000000000             6
    0.40000000000000    0.00000000000000    0.00000000000000             6
    0.42000000000000    0.00000000000000    0.00000000000000             6
    0.44000000000000    0.00000000000000    0.00000000000000             6
    0.46000000000000    0.00000000000000    0.00000000000000             6
    0.48000000000000    0.00000000000000    0.00000000000000             6
    0.50000000000000    0.00000000000000    0.00000000000000             3
    0.02000000000000    0.02000000000000    0.00000000000000            12
    0.04000000000000    0.02000000000000    0.00000000000000            24
    0.06000000000000    0.02000000000000    0.00000000000000            24
    0.08000000000000    0.02000000000000    0.00000000000000            24
    0.10000000000000    0.02000000000000    0.00000000000000            24
    0.12000000000000    0.02000000000000    0.00000000000000            24
    0.14000000000000    0.02000000000000    0.00000000000000            24
    0.16000000000000    0.02000000000000    0.00000000000000            24
    0.18000000000000    0.02000000000000    0.00000000000000            24
    0.20000000000000    0.02000000000000    0.00000000000000            24
    0.22000000000000    0.02000000000000    0.00000000000000            24
    0.24000000000000    0.02000000000000    0.00000000000000            24
    0.26000000000000    0.02000000000000    0.00000000000000            24
    0.28000000000000    0.02000000000000    0.00000000000000            24
    0.30000000000000    0.02000000000000    0.00000000000000            24
    0.32000000000000    0.02000000000000    0.00000000000000            24
    0.34000000000000    0.02000000000000    0.00000000000000            24
    0.36000000000000    0.02000000000000    0.00000000000000            24
    0.38000000000000    0.02000000000000    0.00000000000000            24
    0.40000000000000    0.02000000000000    0.00000000000000            24
    0.42000000000000    0.02000000000000    0.00000000000000            24
    0.44000000000000    0.02000000000000    0.00000000000000            24
    0.46000000000000    0.02000000000000    0.00000000000000            24
    0.48000000000000    0.02000000000000    0.00000000000000            24
    0.50000000000000    0.02000000000000    0.00000000000000            12
    0.04000000000000    0.04000000000000    0.00000000000000            12
    0.06000000000000    0.04000000000000    0.00000000000000            24
    0.08000000000000    0.04000000000000    0.00000000000000            24
    0.10000000000000    0.04000000000000    0.00000000000000            24
    0.12000000000000    0.04000000000000    0.00000000000000            24
    0.14000000000000    0.04000000000000    0.00000000000000            24
    0.16000000000000    0.04000000000000    0.00000000000000            24
    0.18000000000000    0.04000000000000    0.00000000000000            24
    0.20000000000000    0.04000000000000    0.00000000000000            24
    0.22000000000000    0.04000000000000    0.00000000000000            24
    0.24000000000000    0.04000000000000    0.00000000000000            24
    0.26000000000000    0.04000000000000    0.00000000000000            24
    0.28000000000000    0.04000000000000    0.00000000000000            24
    0.30000000000000    0.04000000000000    0.00000000000000            24
    0.32000000000000    0.04000000000000    0.00000000000000            24
    0.34000000000000    0.04000000000000    0.00000000000000            24
    0.36000000000000    0.04000000000000    0.00000000000000            24
    0.38000000000000    0.04000000000000    0.00000000000000            24
    0.40000000000000    0.04000000000000    0.00000000000000            24
    0.42000000000000    0.04000000000000    0.00000000000000            24
    0.44000000000000    0.04000000000000    0.00000000000000            24
    0.46000000000000    0.04000000000000    0.00000000000000            24
    0.48000000000000    0.04000000000000    0.00000000000000            24
    0.50000000000000    0.04000000000000    0.00000000000000            12
    0.06000000000000    0.06000000000000    0.00000000000000            12
    0.08000000000000    0.06000000000000    0.00000000000000            24
    0.10000000000000    0.06000000000000    0.00000000000000            24
    0.12000000000000    0.06000000000000    0.00000000000000            24
    0.14000000000000    0.06000000000000    0.00000000000000            24
    0.16000000000000    0.06000000000000    0.00000000000000            24
    0.18000000000000    0.06000000000000    0.00000000000000            24
    0.20000000000000    0.06000000000000    0.00000000000000            24
    0.22000000000000    0.06000000000000    0.00000000000000            24
    0.24000000000000    0.06000000000000    0.00000000000000            24
    0.26000000000000    0.06000000000000    0.00000000000000            24
    0.28000000000000    0.06000000000000    0.00000000000000            24
    0.30000000000000    0.06000000000000    0.00000000000000            24
    0.32000000000000    0.06000000000000    0.00000000000000            24
    0.34000000000000    0.06000000000000    0.00000000000000            24
    0.36000000000000    0.06000000000000    0.00000000000000            24
    0.38000000000000    0.06000000000000    0.00000000000000            24
    0.40000000000000    0.06000000000000    0.00000000000000            24
    0.42000000000000    0.06000000000000    0.00000000000000            24
    0.44000000000000    0.06000000000000    0.00000000000000            24
    0.46000000000000    0.06000000000000    0.00000000000000            24
    0.48000000000000    0.06000000000000    0.00000000000000            24
    0.50000000000000    0.06000000000000    0.00000000000000            12
    0.08000000000000    0.08000000000000    0.00000000000000            12
    0.10000000000000    0.08000000000000    0.00000000000000            24
    0.12000000000000    0.08000000000000    0.00000000000000            24
    0.14000000000000    0.08000000000000    0.00000000000000            24
    0.16000000000000    0.08000000000000    0.00000000000000            24
    0.18000000000000    0.08000000000000    0.00000000000000            24
    0.20000000000000    0.08000000000000    0.00000000000000            24
    0.22000000000000    0.08000000000000    0.00000000000000            24
    0.24000000000000    0.08000000000000    0.00000000000000            24
    0.26000000000000    0.08000000000000    0.00000000000000            24
    0.28000000000000    0.08000000000000    0.00000000000000            24
    0.30000000000000    0.08000000000000    0.00000000000000            24
    0.32000000000000    0.08000000000000    0.00000000000000            24
    0.34000000000000    0.08000000000000    0.00000000000000            24
    0.36000000000000    0.08000000000000    0.00000000000000            24
    0.38000000000000    0.08000000000000    0.00000000000000            24
    0.40000000000000    0.08000000000000    0.00000000000000            24
    0.42000000000000    0.08000000000000    0.00000000000000            24
    0.44000000000000    0.08000000000000    0.00000000000000            24
    0.46000000000000    0.08000000000000    0.00000000000000            24
    0.48000000000000    0.08000000000000    0.00000000000000            24
    0.50000000000000    0.08000000000000    0.00000000000000            12
    0.10000000000000    0.10000000000000    0.00000000000000            12
    0.12000000000000    0.10000000000000    0.00000000000000            24
    0.14000000000000    0.10000000000000    0.00000000000000            24
    0.16000000000000    0.10000000000000    0.00000000000000            24
    0.18000000000000    0.10000000000000    0.00000000000000            24
    0.20000000000000    0.10000000000000    0.00000000000000            24
    0.22000000000000    0.10000000000000    0.00000000000000            24
    0.24000000000000    0.10000000000000    0.00000000000000            24
    0.26000000000000    0.10000000000000    0.00000000000000            24
    0.28000000000000    0.10000000000000    0.00000000000000            24
    0.30000000000000    0.10000000000000    0.00000000000000            24
    0.32000000000000    0.10000000000000    0.00000000000000            24
    0.34000000000000    0.10000000000000    0.00000000000000            24
    0.36000000000000    0.10000000000000    0.00000000000000            24
    0.38000000000000    0.10000000000000    0.00000000000000            24
    0.40000000000000    0.10000000000000    0.00000000000000            24
    0.42000000000000    0.10000000000000    0.00000000000000            24
    0.44000000000000    0.10000000000000    0.00000000000000            24
    0.46000000000000    0.10000000000000    0.00000000000000            24
    0.48000000000000    0.10000000000000    0.00000000000000            24
    0.50000000000000    0.10000000000000    0.00000000000000            12
    0.12000000000000    0.12000000000000    0.00000000000000            12
    0.14000000000000    0.12000000000000    0.00000000000000            24
    0.16000000000000    0.12000000000000    0.00000000000000            24
    0.18000000000000    0.12000000000000    0.00000000000000            24
    0.20000000000000    0.12000000000000    0.00000000000000            24
    0.22000000000000    0.12000000000000    0.00000000000000            24
    0.24000000000000    0.12000000000000    0.00000000000000            24
    0.26000000000000    0.12000000000000    0.00000000000000            24
    0.28000000000000    0.12000000000000    0.00000000000000            24
    0.30000000000000    0.12000000000000    0.00000000000000            24
    0.32000000000000    0.12000000000000    0.00000000000000            24
    0.34000000000000    0.12000000000000    0.00000000000000            24
    0.36000000000000    0.12000000000000    0.00000000000000            24
    0.38000000000000    0.12000000000000    0.00000000000000            24
    0.40000000000000    0.12000000000000    0.00000000000000            24
    0.42000000000000    0.12000000000000    0.00000000000000            24
    0.44000000000000    0.12000000000000    0.00000000000000            24
    0.46000000000000    0.12000000000000    0.00000000000000            24
    0.48000000000000    0.12000000000000    0.00000000000000            24
    0.50000000000000    0.12000000000000    0.00000000000000            12
    0.14000000000000    0.14000000000000    0.00000000000000            12
    0.16000000000000    0.14000000000000    0.00000000000000            24
    0.18000000000000    0.14000000000000    0.00000000000000            24
    0.20000000000000    0.14000000000000    0.00000000000000            24
    0.22000000000000    0.14000000000000    0.00000000000000            24
    0.24000000000000    0.14000000000000    0.00000000000000            24
    0.26000000000000    0.14000000000000    0.00000000000000            24
    0.28000000000000    0.14000000000000    0.00000000000000            24
    0.30000000000000    0.14000000000000    0.00000000000000            24
    0.32000000000000    0.14000000000000    0.00000000000000            24
    0.34000000000000    0.14000000000000    0.00000000000000            24
    0.36000000000000    0.14000000000000    0.00000000000000            24
    0.38000000000000    0.14000000000000    0.00000000000000            24
    0.40000000000000    0.14000000000000    0.00000000000000            24
    0.42000000000000    0.14000000000000    0.00000000000000            24
    0.44000000000000    0.14000000000000    0.00000000000000            24
    0.46000000000000    0.14000000000000    0.00000000000000            24
    0.48000000000000    0.14000000000000    0.00000000000000            24
    0.50000000000000    0.14000000000000    0.00000000000000            12
    0.16000000000000    0.16000000000000    0.00000000000000            12
    0.18000000000000    0.16000000000000    0.00000000000000            24
    0.20000000000000    0.16000000000000    0.00000000000000            24
    0.22000000000000    0.16000000000000    0.00000000000000            24
    0.24000000000000    0.16000000000000    0.00000000000000            24
    0.26000000000000    0.16000000000000    0.00000000000000            24
    0.28000000000000    0.16000000000000    0.00000000000000            24
    0.30000000000000    0.16000000000000    0.00000000000000            24
    0.32000000000000    0.16000000000000    0.00000000000000            24
    0.34000000000000    0.16000000000000    0.00000000000000            24
    0.36000000000000    0.16000000000000    0.00000000000000            24
    0.38000000000000    0.16000000000000    0.00000000000000            24
    0.40000000000000    0.16000000000000    0.00000000000000            24
    0.42000000000000    0.16000000000000    0.00000000000000            24
    0.44000000000000    0.16000000000000    0.00000000000000            24
    0.46000000000000    0.16000000000000    0.00000000000000            24
    0.48000000000000    0.16000000000000    0.00000000000000            24
    0.50000000000000    0.16000000000000    0.00000000000000            12
    0.18000000000000    0.18000000000000    0.00000000000000            12
    0.20000000000000    0.18000000000000    0.00000000000000            24
    0.22000000000000    0.18000000000000    0.00000000000000            24
    0.24000000000000    0.18000000000000    0.00000000000000            24
    0.26000000000000    0.18000000000000    0.00000000000000            24
    0.28000000000000    0.18000000000000    0.00000000000000            24
    0.30000000000000    0.18000000000000    0.00000000000000            24
    0.32000000000000    0.18000000000000    0.00000000000000            24
    0.34000000000000    0.18000000000000    0.00000000000000            24
    0.36000000000000    0.18000000000000    0.00000000000000            24
    0.38000000000000    0.18000000000000    0.00000000000000            24
    0.40000000000000    0.18000000000000    0.00000000000000            24
    0.42000000000000    0.18000000000000    0.00000000000000            24
    0.44000000000000    0.18000000000000    0.00000000000000            24
    0.46000000000000    0.18000000000000    0.00000000000000            24
    0.48000000000000    0.18000000000000    0.00000000000000            24
    0.50000000000000    0.18000000000000    0.00000000000000            12
    0.20000000000000    0.20000000000000    0.00000000000000            12
    0.22000000000000    0.20000000000000    0.00000000000000            24
    0.24000000000000    0.20000000000000    0.00000000000000            24
    0.26000000000000    0.20000000000000    0.00000000000000            24
    0.28000000000000    0.20000000000000    0.00000000000000            24
    0.30000000000000    0.20000000000000    0.00000000000000            24
    0.32000000000000    0.20000000000000    0.00000000000000            24
    0.34000000000000    0.20000000000000    0.00000000000000            24
    0.36000000000000    0.20000000000000    0.00000000000000            24
    0.38000000000000    0.20000000000000    0.00000000000000            24
    0.40000000000000    0.20000000000000    0.00000000000000            24
    0.42000000000000    0.20000000000000    0.00000000000000            24
    0.44000000000000    0.20000000000000    0.00000000000000            24
    0.46000000000000    0.20000000000000    0.00000000000000            24
    0.48000000000000    0.20000000000000    0.00000000000000            24
    0.50000000000000    0.20000000000000    0.00000000000000            12
    0.22000000000000    0.22000000000000    0.00000000000000            12
    0.24000000000000    0.22000000000000    0.00000000000000            24
    0.26000000000000    0.22000000000000    0.00000000000000            24
    0.28000000000000    0.22000000000000    0.00000000000000            24
    0.30000000000000    0.22000000000000    0.00000000000000            24
    0.32000000000000    0.22000000000000    0.00000000000000            24
    0.34000000000000    0.22000000000000    0.00000000000000            24
    0.36000000000000    0.22000000000000    0.00000000000000            24
    0.38000000000000    0.22000000000000    0.00000000000000            24
    0.40000000000000    0.22000000000000    0.00000000000000            24
    0.42000000000000    0.22000000000000    0.00000000000000            24
    0.44000000000000    0.22000000000000    0.00000000000000            24
    0.46000000000000    0.22000000000000    0.00000000000000            24
    0.48000000000000    0.22000000000000    0.00000000000000            24
    0.50000000000000    0.22000000000000    0.00000000000000            12
    0.24000000000000    0.24000000000000    0.00000000000000            12
    0.26000000000000    0.24000000000000    0.00000000000000            24
    0.28000000000000    0.24000000000000    0.00000000000000            24
    0.30000000000000    0.24000000000000    0.00000000000000            24
    0.32000000000000    0.24000000000000    0.00000000000000            24
    0.34000000000000    0.24000000000000    0.00000000000000            24
    0.36000000000000    0.24000000000000    0.00000000000000            24
    0.38000000000000    0.24000000000000    0.00000000000000            24
    0.40000000000000    0.24000000000000    0.00000000000000            24
    0.42000000000000    0.24000000000000    0.00000000000000            24
    0.44000000000000    0.24000000000000    0.00000000000000            24
    0.46000000000000    0.24000000000000    0.00000000000000            24
    0.48000000000000    0.24000000000000    0.00000000000000            24
    0.50000000000000    0.24000000000000    0.00000000000000            12
    0.26000000000000    0.26000000000000    0.00000000000000            12
    0.28000000000000    0.26000000000000    0.00000000000000            24
    0.30000000000000    0.26000000000000    0.00000000000000            24
    0.32000000000000    0.26000000000000    0.00000000000000            24
    0.34000000000000    0.26000000000000    0.00000000000000            24
    0.36000000000000    0.26000000000000    0.00000000000000            24
    0.38000000000000    0.26000000000000    0.00000000000000            24
    0.40000000000000    0.26000000000000    0.00000000000000            24
    0.42000000000000    0.26000000000000    0.00000000000000            24
    0.44000000000000    0.26000000000000    0.00000000000000            24
    0.46000000000000    0.26000000000000    0.00000000000000            24
    0.48000000000000    0.26000000000000    0.00000000000000            24
    0.50000000000000    0.26000000000000    0.00000000000000            12
    0.28000000000000    0.28000000000000    0.00000000000000            12
    0.30000000000000    0.28000000000000    0.00000000000000            24
    0.32000000000000    0.28000000000000    0.00000000000000            24
    0.34000000000000    0.28000000000000    0.00000000000000            24
    0.36000000000000    0.28000000000000    0.00000000000000            24
    0.38000000000000    0.28000000000000    0.00000000000000            24
    0.40000000000000    0.28000000000000    0.00000000000000            24
    0.42000000000000    0.28000000000000    0.00000000000000            24
    0.44000000000000    0.28000000000000    0.00000000000000            24
    0.46000000000000    0.28000000000000    0.00000000000000            24
    0.48000000000000    0.28000000000000    0.00000000000000            24
    0.50000000000000    0.28000000000000    0.00000000000000            12
    0.30000000000000    0.30000000000000    0.00000000000000            12
    0.32000000000000    0.30000000000000    0.00000000000000            24
    0.34000000000000    0.30000000000000    0.00000000000000            24
    0.36000000000000    0.30000000000000    0.00000000000000            24
    0.38000000000000    0.30000000000000    0.00000000000000            24
    0.40000000000000    0.30000000000000    0.00000000000000            24
    0.42000000000000    0.30000000000000    0.00000000000000            24
    0.44000000000000    0.30000000000000    0.00000000000000            24
    0.46000000000000    0.30000000000000    0.00000000000000            24
    0.48000000000000    0.30000000000000    0.00000000000000            24
    0.50000000000000    0.30000000000000    0.00000000000000            12
    0.32000000000000    0.32000000000000    0.00000000000000            12
    0.34000000000000    0.32000000000000    0.00000000000000            24
    0.36000000000000    0.32000000000000    0.00000000000000            24
    0.38000000000000    0.32000000000000    0.00000000000000            24
    0.40000000000000    0.32000000000000    0.00000000000000            24
    0.42000000000000    0.32000000000000    0.00000000000000            24
    0.44000000000000    0.32000000000000    0.00000000000000            24
    0.46000000000000    0.32000000000000    0.00000000000000            24
    0.48000000000000    0.32000000000000    0.00000000000000            24
    0.50000000000000    0.32000000000000    0.00000000000000            12
    0.34000000000000    0.34000000000000    0.00000000000000            12
    0.36000000000000    0.34000000000000    0.00000000000000            24
    0.38000000000000    0.34000000000000    0.00000000000000            24
    0.40000000000000    0.34000000000000    0.00000000000000            24
    0.42000000000000    0.34000000000000    0.00000000000000            24
    0.44000000000000    0.34000000000000    0.00000000000000            24
    0.46000000000000    0.34000000000000    0.00000000000000            24
    0.48000000000000    0.34000000000000    0.00000000000000            24
    0.50000000000000    0.34000000000000    0.00000000000000            12
    0.36000000000000    0.36000000000000    0.00000000000000            12
    0.38000000000000    0.36000000000000    0.00000000000000            24
    0.40000000000000    0.36000000000000    0.00000000000000            24
    0.42000000000000    0.36000000000000    0.00000000000000            24
    0.44000000000000    0.36000000000000    0.00000000000000            24
    0.46000000000000    0.36000000000000    0.00000000000000            24
    0.48000000000000    0.36000000000000    0.00000000000000            24
    0.50000000000000    0.36000000000000    0.00000000000000            12
    0.38000000000000    0.38000000000000    0.00000000000000            12
    0.40000000000000    0.38000000000000    0.00000000000000            24
    0.42000000000000    0.38000000000000    0.00000000000000            24
    0.44000000000000    0.38000000000000    0.00000000000000            24
    0.46000000000000    0.38000000000000    0.00000000000000            24
    0.48000000000000    0.38000000000000    0.00000000000000            24
    0.50000000000000    0.38000000000000    0.00000000000000            12
    0.40000000000000    0.40000000000000    0.00000000000000            12
    0.42000000000000    0.40000000000000    0.00000000000000            24
    0.44000000000000    0.40000000000000    0.00000000000000            24
    0.46000000000000    0.40000000000000    0.00000000000000            24
    0.48000000000000    0.40000000000000    0.00000000000000            24
    0.50000000000000    0.40000000000000    0.00000000000000            12
    0.42000000000000    0.42000000000000    0.00000000000000            12
    0.44000000000000    0.42000000000000    0.00000000000000            24
    0.46000000000000    0.42000000000000    0.00000000000000            24
    0.48000000000000    0.42000000000000    0.00000000000000            24
    0.50000000000000    0.42000000000000    0.00000000000000            12
    0.44000000000000    0.44000000000000    0.00000000000000            12
    0.46000000000000    0.44000000000000    0.00000000000000            24
    0.48000000000000    0.44000000000000    0.00000000000000            24
    0.50000000000000    0.44000000000000    0.00000000000000            12
    0.46000000000000    0.46000000000000    0.00000000000000            12
    0.48000000000000    0.46000000000000    0.00000000000000            24
    0.50000000000000    0.46000000000000    0.00000000000000            12
    0.48000000000000    0.48000000000000    0.00000000000000            12
    0.50000000000000    0.48000000000000    0.00000000000000            12
    0.50000000000000    0.50000000000000    0.00000000000000             3
    0.02000000000000    0.02000000000000    0.02000000000000             8
    0.04000000000000    0.02000000000000    0.02000000000000            24
    0.06000000000000    0.02000000000000    0.02000000000000            24
    0.08000000000000    0.02000000000000    0.02000000000000            24
    0.10000000000000    0.02000000000000    0.02000000000000            24
    0.12000000000000    0.02000000000000    0.02000000000000            24
    0.14000000000000    0.02000000000000    0.02000000000000            24
    0.16000000000000    0.02000000000000    0.02000000000000            24
    0.18000000000000    0.02000000000000    0.02000000000000            24
    0.20000000000000    0.02000000000000    0.02000000000000            24
    0.22000000000000    0.02000000000000    0.02000000000000            24
    0.24000000000000    0.02000000000000    0.02000000000000            24
    0.26000000000000    0.02000000000000    0.02000000000000            24
    0.28000000000000    0.02000000000000    0.02000000000000            24
    0.30000000000000    0.02000000000000    0.02000000000000            24
    0.32000000000000    0.02000000000000    0.02000000000000            24
    0.34000000000000    0.02000000000000    0.02000000000000            24
    0.36000000000000    0.02000000000000    0.02000000000000            24
    0.38000000000000    0.02000000000000    0.02000000000000            24
    0.40000000000000    0.02000000000000    0.02000000000000            24
    0.42000000000000    0.02000000000000    0.02000000000000            24
    0.44000000000000    0.02000000000000    0.02000000000000            24
    0.46000000000000    0.02000000000000    0.02000000000000            24
    0.48000000000000    0.02000000000000    0.02000000000000            24
    0.50000000000000    0.02000000000000    0.02000000000000            12
    0.04000000000000    0.04000000000000    0.02000000000000            24
    0.06000000000000    0.04000000000000    0.02000000000000            48
    0.08000000000000    0.04000000000000    0.02000000000000            48
    0.10000000000000    0.04000000000000    0.02000000000000            48
    0.12000000000000    0.04000000000000    0.02000000000000            48
    0.14000000000000    0.04000000000000    0.02000000000000            48
    0.16000000000000    0.04000000000000    0.02000000000000            48
    0.18000000000000    0.04000000000000    0.02000000000000            48
    0.20000000000000    0.04000000000000    0.02000000000000            48
    0.22000000000000    0.04000000000000    0.02000000000000            48
    0.24000000000000    0.04000000000000    0.02000000000000            48
    0.26000000000000    0.04000000000000    0.02000000000000            48
    0.28000000000000    0.04000000000000    0.02000000000000            48
    0.30000000000000    0.04000000000000    0.02000000000000            48
    0.32000000000000    0.04000000000000    0.02000000000000            48
    0.34000000000000    0.04000000000000    0.02000000000000            48
    0.36000000000000    0.04000000000000    0.02000000000000            48
    0.38000000000000    0.04000000000000    0.02000000000000            48
    0.40000000000000    0.04000000000000    0.02000000000000            48
    0.42000000000000    0.04000000000000    0.02000000000000            48
    0.44000000000000    0.04000000000000    0.02000000000000            48
    0.46000000000000    0.04000000000000    0.02000000000000            48
    0.48000000000000    0.04000000000000    0.02000000000000            48