Automatically generated mesh
    1771
Reciprocal lattice
    0.00000000000000    0.00000000000000    0.00000000000000             1
    0.02500000000000    0.00000000000000    0.00000000000000             6
    0.05000000000000    0.00000000000000    0.00000000000000             6
    0.07500000000000    0.00000000000000    0.00000000000000             6
    0.10000000000000    0.00000000000000    0.00000000000000             6
    0.12500000000000    0.00000000000000    0.00000000000000             6
    0.15000000000000    0.00000000000000    0.00000000000000             6
    0.17500000000000    0.00000000000000    0.00000000000000             6
    0.20000000000000    0.00000000000000    0.00000000000000             6
    0.22500000000000    0.00000000000000    0.00000000000000             6
    0.25000000000000    0.00000000000000    0.00000000000000             6
    0.27500000000000    0.00000000000000    0.00000000000000             6
    0.30000000000000    0.00000000000000    0.00000000000000             6
    0.32500000000000    0.00000000000000    0.00000000000000             6
    0.35000000000000    0.00000000000000    0.00000000000000             6
    0.37500000000000    0.00000000000000    0.00000000000000             6
    0.40000000000000    0.00000000000000    0.00000000000000             6
    0.42500000000000    0.00000000000000    0.00000000000000             6
    0.45000000000000    0.00000000000000    0.00000000000000             6
    0.47500000000000    0.00000000000000    0.00000000000000             6
    0.50000000000000    0.00000000000000    0.00000000000000             3
    0.02500000000000    0.02500000000000    0.00000000000000            12
    0.05000000000000    0.02500000000000    0.00000000000000            24
    0.07500000000000    0.02500000000000    0.00000000000000            24
    0.10000000000000    0.02500000000000    0.00000000000000            24
    0.12500000000000    0.02500000000000    0.00000000000000            24
    0.15000000000000    0.02500000000000    0.00000000000000            24
    0.17500000000000    0.02500000000000    0.00000000000000            24
    0.20000000000000    0.02500000000000    0.00000000000000            24
    0.22500000000000    0.02500000000000    0.00000000000000            24
    0.25000000000000    0.02500000000000    0.00000000000000            24
    0.27500000000000    0.02500000000000    0.00000000000000            24
    0.30000000000000    0.02500000000000    0.00000000000000            24
    0.32500000000000    0.02500000000000    0.00000000000000            24
    0.35000000000000    0.02500000000000    0.00000000000000            24
    0.37500000000000    0.02500000000000    0.00000000000000            24
    0.40000000000000    0.02500000000000    0.00000000000000            24
    0.42500000000000    0.02500000000000    0.00000000000000            24
    0.45000000000000    0.02500000000000    0.00000000000000            24
    0.47500000000000    0.02500000000000    0.00000000000000            24
    0.50000000000000    0.02500000000000    0.00000000000000            12
    0.05000000000000    0.05000000000000    0.00000000000000            12
    0.07500000000000    0.05000000000000    0.00000000000000            24
    0.10000000000000    0.05000000000000    0.00000000000000            24
    0.12500000000000    0.05000000000000    0.00000000000000            24
    0.15000000000000    0.05000000000000    0.00000000000000            24
    0.17500000000000    0.05000000000000    0.00000000000000            24
    0.20000000000000    0.05000000000000    0.00000000000000            24
    0.22500000000000    0.05000000000000    0.00000000000000            24
    0.25000000000000    0.05000000000000    0.00000000000000            24
    0.27500000000000    0.05000000000000    0.00000000000000            24
    0.30000000000000    0.05000000000000    0.00000000000000            24
    0.32500000000000    0.05000000000000    0.00000000000000            24
    0.35000000000000    0.05000000000000    0.00000000000000            24
    0.37500000000000    0.05000000000000    0.00000000000000            24
    0.40000000000000    0.05000000000000    0.00000000000000            24
    0.42500000000000    0.05000000000000    0.00000000000000            24
    0.45000000000000    0.05000000000000    0.00000000000000            24
    0.47500000000000    0.05000000000000    0.00000000000000            24
    0.50000000000000    0.05000000000000    0.00000000000000            12
    0.07500000000000    0.07500000000000    0.00000000000000            12
    0.10000000000000    0.07500000000000    0.00000000000000            24
    0.12500000000000    0.07500000000000    0.00000000000000            24
    0.15000000000000    0.07500000000000    0.00000000000000            24
    0.17500000000000    0.07500000000000    0.00000000000000            24
    0.20000000000000    0.07500000000000    0.00000000000000            24
    0.22500000000000    0.07500000000000    0.00000000000000            24
    0.25000000000000    0.07500000000000    0.00000000000000            24
    0.27500000000000    0.07500000000000    0.00000000000000            24
    0.30000000000000    0.07500000000000    0.00000000000000            24
    0.32500000000000    0.07500000000000    0.00000000000000            24
    0.35000000000000    0.07500000000000    0.00000000000000            24
    0.37500000000000    0.07500000000000    0.00000000000000            24
    0.40000000000000    0.07500000000000    0.00000000000000            24
    0.42500000000000    0.07500000000000    0.00000000000000            24
    0.45000000000000    0.07500000000000    0.00000000000000            24
    0.47500000000000    0.07500000000000    0.00000000000000            24
    0.50000000000000    0.07500000000000    0.00000000000000            12
    0.10000000000000    0.10000000000000    0.00000000000000            12
    0.12500000000000    0.10000000000000    0.00000000000000            24
    0.15000000000000    0.10000000000000    0.00000000000000            24
    0.17500000000000    0.10000000000000    0.00000000000000            24
    0.20000000000000    0.10000000000000    0.00000000000000            24
    0.22500000000000    0.10000000000000    0.00000000000000            24
    0.25000000000000    0.10000000000000    0.00000000000000            24
    0.27500000000000    0.10000000000000    0.00000000000000            24
    0.30000000000000    0.10000000000000    0.00000000000000            24
    0.32500000000000    0.10000000000000    0.00000000000000            24
    0.35000000000000    0.10000000000000    0.00000000000000            24
    0.37500000000000    0.10000000000000    0.00000000000000            24
    0.40000000000000    0.10000000000000    0.00000000000000            24
    0.42500000000000    0.10000000000000    0.00000000000000            24
    0.45000000000000    0.10000000000000    0.00000000000000            24
    0.47500000000000    0.10000000000000    0.00000000000000            24
    0.50000000000000    0.10000000000000    0.00000000000000            12
    0.12500000000000    0.12500000000000    0.00000000000000            12
    0.15000000000000    0.12500000000000    0.00000000000000            24
    0.17500000000000    0.12500000000000    0.00000000000000            24
    0.20000000000000    0.12500000000000    0.00000000000000            24
    0.22500000000000    0.12500000000000    0.00000000000000            24
    0.25000000000000    0.12500000000000    0.00000000000000            24
    0.27500000000000    0.12500000000000    0.00000000000000            24
    0.30000000000000    0.12500000000000    0.00000000000000            24
    0.32500000000000    0.12500000000000    0.00000000000000            24
    0.35000000000000    0.12500000000000    0.00000000000000            24
    0.37500000000000    0.12500000000000    0.00000000000000            24
    0.40000000000000    0.12500000000000    0.00000000000000            24
    0.42500000000000    0.12500000000000    0.00000000000000            24
    0.45000000000000    0.12500000000000    0.00000000000000            24
    0.47500000000000    0.12500000000000    0.00000000000000            24
    0.50000000000000    0.12500000000000    0.00000000000000            12
    0.15000000000000    0.15000000000000    0.00000000000000            12
    0.17500000000000    0.15000000000000    0.00000000000000            24
    0.20000000000000    0.15000000000000    0.00000000000000            24
    0.22500000000000    0.15000000000000    0.00000000000000            24
    0.25000000000000    0.15000000000000    0.00000000000000            24
    0.27500000000000    0.15000000000000    0.00000000000000            24
    0.30000000000000    0.15000000000000    0.00000000000000            24
    0.32500000000000    0.15000000000000    0.00000000000000            24
    0.35000000000000    0.15000000000000    0.00000000000000            24
    0.37500000000000    0.15000000000000    0.00000000000000            24
    0.40000000000000    0.15000000000000    0.00000000000000            24
    0.42500000000000    0.15000000000000    0.00000000000000            24
    0.45000000000000    0.15000000000000    0.00000000000000            24
    0.47500000000000    0.15000000000000    0.00000000000000            24
    0.50000000000000    0.15000000000000    0.00000000000000            12
    0.17500000000000    0.17500000000000    0.00000000000000            12
    0.20000000000000    0.17500000000000    0.00000000000000            24
    0.22500000000000    0.17500000000000    0.00000000000000            24
    0.25000000000000    0.17500000000000    0.00000000000000            24
    0.27500000000000    0.17500000000000    0.00000000000000            24
    0.30000000000000    0.17500000000000    0.00000000000000            24
    0.32500000000000    0.17500000000000    0.00000000000000            24
    0.35000000000000    0.17500000000000    0.00000000000000            24
    0.37500000000000    0.17500000000000    0.00000000000000            24
    0.40000000000000    0.17500000000000    0.00000000000000            24
    0.42500000000000    0.17500000000000    0.00000000000000            24
    0.45000000000000    0.17500000000000    0.00000000000000            24
    0.47500000000000    0.17500000000000    0.00000000000000            24
    0.50000000000000    0.17500000000000    0.00000000000000            12
    0.20000000000000    0.20000000000000    0.00000000000000            12
    0.22500000000000    0.20000000000000    0.00000000000000            24
    0.25000000000000    0.20000000000000    0.00000000000000            24
    0.27500000000000    0.20000000000000    0.00000000000000            24
    0.30000000000000    0.20000000000000    0.00000000000000            24
    0.32500000000000    0.20000000000000    0.00000000000000            24
    0.35000000000000    0.20000000000000    0.00000000000000            24
    0.37500000000000    0.20000000000000    0.00000000000000            24
    0.40000000000000    0.20000000000000    0.00000000000000            24
    0.42500000000000    0.20000000000000    0.00000000000000            24
    0.45000000000000    0.20000000000000    0.00000000000000            24
    0.47500000000000    0.20000000000000    0.00000000000000            24
    0.50000000000000    0.20000000000000    0.00000000000000            12
    0.22500000000000    0.22500000000000    0.00000000000000            12
    0.25000000000000    0.22500000000000    0.00000000000000            24
    0.27500000000000    0.22500000000000    0.00000000000000            24
    0.30000000000000    0.22500000000000    0.00000000000000            24
    0.32500000000000    0.22500000000000    0.00000000000000            24
    0.35000000000000    0.22500000000000    0.00000000000000            24
    0.37500000000000    0.22500000000000    0.00000000000000            24
    0.40000000000000    0.22500000000000    0.00000000000000            24
    0.42500000000000    0.22500000000000    0.00000000000000            24
    0.45000000000000    0.22500000000000    0.00000000000000            24
    0.47500000000000    0.22500000000000    0.00000000000000            24
    0.50000000000000    0.22500000000000    0.00000000000000            12
    0.25000000000000    0.25000000000000    0.00000000000000            12
    0.27500000000000    0.25000000000000    0.00000000000000            24
    0.30000000000000    0.25000000000000    0.00000000000000            24
    0.32500000000000    0.25000000000000    0.00000000000000            24
    0.35000000000000    0.25000000000000    0.00000000000000            24
    0.37500000000000    0.25000000000000    0.00000000000000            24
    0.40000000000000    0.25000000000000    0.00000000000000            24
    0.42500000000000    0.25000000000000    0.00000000000000            24
    0.45000000000000    0.25000000000000    0.00000000000000            24
    0.47500000000000    0.25000000000000    0.00000000000000            24
    0.50000000000000    0.25000000000000    0.00000000000000            12
    0.27500000000000    0.27500000000000    0.00000000000000            12
    0.30000000000000    0.27500000000000    0.00000000000000            24
    0.32500000000000    0.27500000000000    0.00000000000000            24
    0.35000000000000    0.27500000000000    0.00000000000000            24
    0.37500000000000    0.27500000000000    0.00000000000000            24
    0.40000000000000    0.27500000000000    0.00000000000000            24
    0.42500000000000    0.27500000000000    0.00000000000000            24
    0.45000000000000    0.27500000000000    0.00000000000000            24
    0.47500000000000    0.27500000000000    0.00000000000000            24
    0.50000000000000    0.27500000000000    0.00000000000000            12
    0.30000000000000    0.30000000000000    0.00000000000000            12
    0.32500000000000    0.30000000000000    0.00000000000000            24
    0.35000000000000    0.30000000000000    0.00000000000000            24
    0.37500000000000    0.30000000000000    0.00000000000000            24
    0.40000000000000    0.30000000000000    0.00000000000000            24
    0.42500000000000    0.30000000000000    0.00000000000000            24
    0.45000000000000    0.30000000000000    0.00000000000000            24
    0.47500000000000    0.30000000000000    0.00000000000000            24
    0.50000000000000    0.30000000000000    0.00000000000000            12
    0.32500000000000    0.32500000000000    0.00000000000000            12
    0.35000000000000    0.32500000000000    0.00000000000000            24
    0.37500000000000    0.32500000000000    0.00000000000000            24
    0.40000000000000    0.32500000000000    0.00000000000000            24
    0.42500000000000    0.32500000000000    0.00000000000000            24
    0.45000000000000    0.32500000000000    0.00000000000000            24
    0.47500000000000    0.32500000000000    0.00000000000000            24
    0.50000000000000    0.32500000000000    0.00000000000000            12
    0.35000000000000    0.35000000000000    0.00000000000000            12
    0.37500000000000    0.35000000000000    0.00000000000000            24
    0.40000000000000    0.35000000000000    0.00000000000000            24
    0.42500000000000    0.35000000000000    0.00000000000000            24
    0.45000000000000    0.35000000000000    0.00000000000000            24
    0.47500000000000    0.35000000000000    0.00000000000000            24
    0.50000000000000    0.35000000000000    0.00000000000000            12
    0.37500000000000    0.37500000000000    0.00000000000000            12
    0.40000000000000    0.37500000000000    0.00000000000000            24
    0.42500000000000    0.37500000000000    0.00000000000000            24
    0.45000000000000    0.37500000000000    0.00000000000000            24
    0.47500000000000    0.37500000000000    0.00000000000000            24
    0.50000000000000    0.37500000000000    0.00000000000000            12
    0.40000000000000    0.40000000000000    0.00000000000000            12
    0.42500000000000    0.40000000000000    0.00000000000000            24
    0.45000000000000    0.40000000000000    0.00000000000000            24
    0.47500000000000    0.40000000000000    0.00000000000000            24
    0.50000000000000    0.40000000000000    0.00000000000000            12
    0.42500000000000    0.42500000000000    0.00000000000000            12
    0.45000000000000    0.42500000000000    0.00000000000000            24
    0.47500000000000    0.42500000000000    0.00000000000000            24
    0.50000000000000    0.42500000000000    0.00000000000000            12
    0.45000000000000    0.45000000000000    0.00000000000000            12
    0.47500000000000    0.45000000000000    0.00000000000000            24
    0.50000000000000    0.45000000000000    0.00000000000000            12
    0.47500000000000    0.47500000000000    0.00000000000000            12
    0.50000000000000    0.47500000000000    0.00000000000000            12
    0.50000000000000    0.50000000000000    0.00000000000000             3
    0.02500000000000    0.02500000000000    0.02500000000000             8
    0.05000000000000    0.02500000000000    0.02500000000000            24
    0.07500000000000    0.02500000000000    0.02500000000000            24
    0.10000000000000    0.02500000000000    0.02500000000000            24
    0.12500000000000    0.02500000000000    0.02500000000000            24
    0.15000000000000    0.02500000000000    0.02500000000000            24
    0.17500000000000    0.02500000000000    0.02500000000000            24
    0.20000000000000    0.02500000000000    0.02500000000000            24
    0.22500000000000    0.02500000000000    0.02500000000000            24
    0.25000000000000    0.02500000000000    0.02500000000000            24
    0.27500000000000    0.02500000000000    0.02500000000000            24
    0.30000000000000    0.02500000000000    0.02500000000000            24
    0.32500000000000    0.02500000000000    0.02500000000000            24
    0.35000000000000    0.02500000000000    0.02500000000000            24
    0.37500000000000    0.02500000000000    0.02500000000000            24
    0.40000000000000    0.02500000000000    0.02500000000000            24
    0.42500000000000    0.02500000000000    0.02500000000000            24
    0.45000000000000    0.02500000000000    0.02500000000000            24
    0.47500000000000    0.02500000000000    0.02500000000000            24
    0.50000000000000    0.02500000000000    0.02500000000000            12
    0.05000000000000    0.05000000000000    0.02500000000000            24
    0.07500000000000    0.05000000000000    0.02500000000000            48
    0.10000000000000    0.05000000000000    0.02500000000000            48
    0.12500000000000    0.05000000000000    0.02500000000000            48
    0.15000000000000    0.05000000000000    0.02500000000000            48
    0.17500000000000    0.05000000000000    0.02500000000000            48
    0.20000000000000    0.05000000000000    0.02500000000000            48
    0.22500000000000    0.05000000000000    0.02500000000000            48
    0.25000000000000    0.05000000000000    0.02500000000000            48
    0.27500000000000    0.05000000000000    0.02500000000000            48
    0.30000000000000    0.05000000000000    0.02500000000000            48
    0.32500000000000    0.05000000000000    0.02500000000000            48
    0.35000000000000    0.05000000000000    0.02500000000000            48
    0.37500000000000    0.05000000000000    0.02500000000000            48
    0.40000000000000    0.05000000000000    0.02500000000000            48
    0.42500000000000    0.05000000000000    0.02500000000000            48
    0.45000000000000    0.05000000000000    0.02500000000000            48
    0.47500000000000    0.05000000000000    0.02500000000000            48
    0.50000000000000    0.05000000000000    0.02500000000000            24
    0.07500000000000    0.07500000000000    0.02500000000000            24
    0.10000000000000    0.07500000000000    0.02500000000000            48
    0.12500000000000    0.07500000000000    0.02500000000000            48
    0.15000000000000    0.07500000000000    0.02500000000000            48
    0.17500000000000    0.07500000000000    0.02500000000000            48
    0.20000000000000    0.07500000000000    0.02500000000000            48
    0.22500000000000    0.07500000000000    0.02500000000000            48
    0.25000000000000    0.07500000000000    0.02500000000000            48
    0.27500000000000    0.07500000000000    0.02500000000000            48
    0.30000000000000    0.07500000000000    0.02500000000000            48
    0.32500000000000    0.07500000000000    0.02500000000000            48
    0.35000000000000    0.07500000000000    0.02500000000000            48
    0.37500000000000    0.07500000000000    0.02500000000000            48
    0.40000000000000    0.07500000000000    0.02500000000000            48
    0.42500000000000    0.07500000000000    0.02500000000000            48
    0.45000000000000    0.07500000000000    0.02500000000000            48
    0.47500000000000    0.07500000000000    0.02500000000000            48
    0.50000000000000    0.07500000000000    0.02500000000000            24
    0.10000000000000    0.10000000000000    0.02500000000000            24
    0.12500000000000    0.10000000000000    0.02500000000000            48
    0.15000000000000    0.10000000000000    0.02500000000000            48
    0.17500000000000    0.10000000000000    0.02500000000000            48
    0.20000000000000    0.10000000000000    0.02500000000000            48
    0.22500000000000    0.10000000000000    0.02500000000000            48
    0.25000000000000    0.10000000000000    0.02500000000000            48
    0.27500000000000    0.10000000000000    0.02500000000000            48
    0.30000000000000    0.10000000000000    0.02500000000000            48
    0.32500000000000    0.10000000000000    0.02500000000000            48
    0.35000000000000    0.10000000000000    0.02500000000000            48
    0.37500000000000    0.10000000000000    0.02500000000000            48
    0.40000000000000    0.10000000000000    0.02500000000000            48
    0.42500000000000    0.10000000000000    0.02500000000000            48
    0.45000000000000    0.10000000000000    0.02500000000000            48
    0.47500000000000    0.10000000000000    0.02500000000000            48
    0.50000000000000    0.10000000000000    0.02500000000000            24
    0.12500000000000    0.12500000000000    0.02500000000000            24
    0.15000000000000    0.12500000000000    0.02500000000000            48
    0.17500000000000    0.12500000000000    0.02500000000000            48
    0.20000000000000    0.12500000000000    0.02500000000000            48
    0.22500000000000    0.12500000000000    0.02500000000000            48
    0.25000000000000    0.12500000000000    0.02500000000000            48
    0.27500000000000    0.12500000000000    0.02500000000000            48
    0.30000000000000    0.12500000000000    0.02500000000000            48
    0.32500000000000    0.12500000000000    0.02500000000000            48
    0.35000000000000    0.12500000000000    0.02500000000000            48
    0.37500000000000    0.12500000000000    0.02500000000000            48
    0.40000000000000    0.12500000000000    0.02500000000000            48
    0.42500000000000    0.12500000000000    0.02500000000000            48
    0.45000000000000    0.12500000000000    0.02500000000000            48
    0.47500000000000    0.12500000000000    0.02500000000000            48
    0.50000000000000    0.12500000000000    0.02500000000000            24
    0.15000000000000    0.15000000000000    0.02500000000000            24
    0.17500000000000    0.15000000000000    0.02500000000000            48
    0.20000000000000    0.15000000000000    0.02500000000000            48
    0.22500000000000    0.15000000000000    0.02500000000000            48
    0.25000000000000    0.15000000000000    0.02500000000000            48
    0.27500000000000    0.15000000000000    0.02500000000000            48
    0.30000000000000    0.15000000000000    0.02500000000000            48
    0.32500000000000    0.15000000000000    0.02500000000000            48
    0.35000000000000    0.15000000000000    0.02500000000000            48
    0.37500000000000    0.15000000000000    0.02500000000000            48
    0.40000000000000    0.15000000000000    0.02500000000000            48
    0.42500000000000    0.15000000000000    0.02500000000000            48
    0.45000000000000    0.15000000000000    0.02500000000000            48
    0.47500000000000    0.15000000000000    0.02500000000000            48
    0.50000000000000    0.15000000000000    0.02500000000000            24
    0.17500000000000    0.17500000000000    0.02500000000000            24
    0.20000000000000    0.17500000000000    0.02500000000000            48
    0.22500000000000    0.17500000000000    0.02500000000000            48
    0.25000000000000    0.17500000000000    0.02500000000000            48
    0.27500000000000    0.17500000000000    0.02500000000000            48
    0.30000000000000    0.17500000000000    0.02500000000000            48
    0.32500000000000    0.17500000000000    0.02500000000000            48
    0.35000000000000    0.17500000000000    0.02500000000000            48
    0.37500000000000    0.17500000000000    0.02500000000000            48
    0.40000000000000    0.17500000000000    0.02500000000000            48
    0.42500000000000    0.17500000000000    0.02500000000000            48
    0.45000000000000    0.17500000000000    0.02500000000000            48
    0.47500000000000    0.17500000000000    0.02500000000000            48
    0.50000000000000    0.17500000000000    0.02500000000000            24
    0.20000000000000    0.20000000000000    0.02500000000000            24
    0.22500000000000    0.20000000000000    0.02500000000000            48
    0.25000000000000    0.20000000000000    0.02500000000000            48
    0.27500000000000    0.20000000000000    0.02500000000000            48
    0.30000000000000    0.20000000000000    0.02500000000000            48
    0.32500000000000    0.20000000000000    0.02500000000000            48
    0.35000000000000    0.20000000000000    0.02500000000000            48
    0.37500000000000    0.20000000000000    0.02500000000000            48
    0.40000000000000    0.20000000000000    0.02500000000000            48
    0.42500000000000    0.20000000000000    0.02500000000000            48
    0.45000000000000    0.20000000000000    0.02500000000000            48
    0.47500000000000    0.20000000000000    0.02500000000000            48
    0.50000000000000    0.20000000000000    0.02500000000000            24
    0.22500000000000    0.22500000000000    0.02500000000000            24
    0.25000000000000    0.22500000000000    0.02500000000000            48
    0.27500000000000    0.22500000000000    0.02500000000000            48
    0.30000000000000    0.22500000000000    0.02500000000000            48
    0.32500000000000    0.22500000000000    0.02500000000000            48
    0.35000000000000    0.22500000000000    0.02500000000000            48
    0.37500000000000    0.22500000000000    0.02500000000000            48
    0.40000000000000    0.22500000000000    0.02500000000000            48
    0.42500000000000    0.22500000000000    0.02500000000000            48
    0.45000000000000    0.22500000000000    0.02500000000000            48
    0.47500000000000    0.22500000000000    0.02500000000000            48
    0.50000000000000    0.22500000000000    0.02500000000000            24
    0.25000000000000    0.25000000000000    0.02500000000000            24
    0.27500000000000    0.25000000000000    0.02500000000000            48
    0.30000000000000    0.25000000000000    0.02500000000000            48
    0.32500000000000    0.25000000000000    0.02500000000000            48
    0.35000000000000    0.25000000000000    0.02500000000000            48
    0.37500000000000    0.25000000000000    0.02500000000000            48
    0.40000000000000    0.25000000000000    0.02500000000000            48
    0.42500000000000    0.25000000000000    0.02500000000000            48
    0.45000000000000    0.25000000000000    0.02500000000000            48
    0.47500000000000    0.25000000000000    0.02500000000000            48
    0.50000000000000    0.25000000000000    0.02500000000000            24
    0.27500000000000    0.27500000000000    0.02500000000000            24
    0.30000000000000    0.27500000000000    0.02500000000000            48
    0.32500000000000    0.27500000000000    0.02500000000000            48
    0.35000000000000    0.27500000000000    0.02500000000000            48
    0.37500000000000    0.27500000000000    0.02500000000000            48
    0.40000000000000    0.27500000000000    0.02500000000000            48
    0.42500000000000    0.27500000000000    0.02500000000000            48
    0.45000000000000    0.27500000000000    0.02500000000000            48
    0.47500000000000    0.27500000000000    0.02500000000000            48
    0.50000000000000    0.27500000000000    0.02500000000000            24
    0.30000000000000    0.30000000000000    0.02500000000000            24
    0.32500000000000    0.30000000000000    0.02500000000000            48
    0.35000000000000    0.30000000000000    0.02500000000000            48